
Gurobi 9.5.2 (win64) logging started Mon Mar 27 20:26:54 2023

Set parameter LogFile to value "2023-03-27_20hr-25min-09sec/Nodes30_Arcs35_LocNodes22/Formulation-2Instance-1.log"
Set parameter TimeLimit to value 600
Set parameter IntFeasTol to value 1e-09
Set parameter DualReductions to value 0
Set parameter NonConvex to value 2
Gurobi Optimizer version 9.5.2 build v9.5.2rc0 (win64)
Thread count: 4 physical cores, 8 logical processors, using up to 8 threads
Optimize a model with 118 rows, 204 columns and 418 nonzeros
Model fingerprint: 0xc424d10b
Model has 65 quadratic objective terms
Model has 65 SOS constraints
Variable types: 182 continuous, 22 integer (22 binary)
Coefficient statistics:
  Matrix range     [6e-03, 2e+02]
  Objective range  [3e-02, 1e+03]
  QObjective range [1e-02, 8e+00]
  Bounds range     [1e+00, 1e+00]
  RHS range        [3e-02, 2e+03]
Presolve removed 12 rows and 17 columns
Presolve time: 0.00s
Presolved: 106 rows, 187 columns, 380 nonzeros
Presolved model has 58 SOS constraint(s)
Presolved model has 58 quadratic objective terms
Variable types: 165 continuous, 22 integer (22 binary)

Root relaxation: objective 7.153139e+05, 228 iterations, 0.00 seconds (0.00 work units)

    Nodes    |    Current Node    |     Objective Bounds      |     Work
 Expl Unexpl |  Obj  Depth IntInf | Incumbent    BestBd   Gap | It/Node Time

     0     0 715313.940    0    4          - 715313.940      -     -    0s
H    0     0                    710543.57924 715313.940  0.67%     -    0s
H    0     0                    714821.96481 715313.940  0.07%     -    0s
     0     0 715039.787    0    5 714821.965 715039.787  0.03%     -    0s
     0     0 715038.808    0    5 714821.965 715038.808  0.03%     -    0s
     0     0 714870.072    0    4 714821.965 714870.072  0.01%     -    0s

Cutting planes:
  Implied bound: 1
  MIR: 2
  Flow cover: 1

Explored 1 nodes (243 simplex iterations) in 0.11 seconds (0.01 work units)
Thread count was 8 (of 8 available processors)

Solution count 2: 714822 710544 

Optimal solution found (tolerance 1.00e-04)
Best objective 7.148219648134e+05, best bound 7.148700715918e+05, gap 0.0067%

User-callback calls 264, time in user-callback 0.00 sec
